p tw 35 51
1 2
6 7
6 11
11 12
11 16
16 17
16 21
21 22
26 27
26 31
31 32
2 3
2 7
7 8
7 12
12 13
12 17
17 18
17 22
22 23
22 27
27 28
27 32
32 33
3 4
3 8
8 9
8 13
13 14
13 18
18 19
18 23
23 24
23 28
28 29
28 33
33 34
9 10
9 14
14 15
14 19
19 24
24 25
24 29
29 34
34 35
5 10
10 15
15 20
20 25
25 30
